c generated by sgen
p cnf 105 220
-2 -3 -4 0
-1 -3 -4 0
-1 -2 -4 0
-1 -2 -3 0
-6 -7 -8 0
-5 -7 -8 0
-5 -6 -8 0
-5 -6 -7 0
-10 -11 -12 0
-9 -11 -12 0
-9 -10 -12 0
-9 -10 -11 0
-14 -15 -16 0
-13 -15 -16 0
-13 -14 -16 0
-13 -14 -15 0
-18 -19 -20 0
-17 -19 -20 0
-17 -18 -20 0
-17 -18 -19 0
-22 -23 -24 0
-21 -23 -24 0
-21 -22 -24 0
-21 -22 -23 0
-26 -27 -28 0
-25 -27 -28 0
-25 -26 -28 0
-25 -26 -27 0
-30 -31 -32 0
-29 -31 -32 0
-29 -30 -32 0
-29 -30 -31 0
-34 -35 -36 0
-33 -35 -36 0
-33 -34 -36 0
-33 -34 -35 0
-38 -39 -40 0
-37 -39 -40 0
-37 -38 -40 0
-37 -38 -39 0
-42 -43 -44 0
-41 -43 -44 0
-41 -42 -44 0
-41 -42 -43 0
-46 -47 -48 0
-45 -47 -48 0
-45 -46 -48 0
-45 -46 -47 0
-50 -51 -52 0
-49 -51 -52 0
-49 -50 -52 0
-49 -50 -51 0
-54 -55 -56 0
-53 -55 -56 0
-53 -54 -56 0
-53 -54 -55 0
-58 -59 -60 0
-57 -59 -60 0
-57 -58 -60 0
-57 -58 -59 0
-62 -63 -64 0
-61 -63 -64 0
-61 -62 -64 0
-61 -62 -63 0
-66 -67 -68 0
-65 -67 -68 0
-65 -66 -68 0
-65 -66 -67 0
-70 -71 -72 0
-69 -71 -72 0
-69 -70 -72 0
-69 -70 -71 0
-74 -75 -76 0
-73 -75 -76 0
-73 -74 -76 0
-73 -74 -75 0
-78 -79 -80 0
-77 -79 -80 0
-77 -78 -80 0
-77 -78 -79 0
-82 -83 -84 0
-81 -83 -84 0
-81 -82 -84 0
-81 -82 -83 0
-86 -87 -88 0
-85 -87 -88 0
-85 -86 -88 0
-85 -86 -87 0
-90 -91 -92 0
-89 -91 -92 0
-89 -90 -92 0
-89 -90 -91 0
-94 -95 -96 0
-93 -95 -96 0
-93 -94 -96 0
-93 -94 -95 0
-98 -99 -100 0
-97 -99 -100 0
-97 -98 -100 0
-97 -98 -99 0
-101 -102 -103 0
-101 -102 -104 0
-101 -102 -105 0
-101 -103 -104 0
-101 -103 -105 0
-101 -104 -105 0
-102 -103 -104 0
-102 -103 -105 0
-102 -104 -105 0
-103 -104 -105 0
20 34 67 0
16 34 67 0
16 20 67 0
16 20 34 0
21 66 100 0
42 66 100 0
42 21 100 0
42 21 66 0
35 90 43 0
50 90 43 0
50 35 43 0
50 35 90 0
62 47 104 0
99 47 104 0
99 62 104 0
99 62 47 0
101 7 71 0
41 7 71 0
41 101 71 0
41 101 7 0
29 92 82 0
26 92 82 0
26 29 82 0
26 29 92 0
18 31 12 0
24 31 12 0
24 18 12 0
24 18 31 0
91 48 69 0
56 48 69 0
56 91 69 0
56 91 48 0
95 57 33 0
98 57 33 0
98 95 33 0
98 95 57 0
22 51 13 0
28 51 13 0
28 22 13 0
28 22 51 0
2 80 15 0
97 80 15 0
97 2 15 0
97 2 80 0
1 58 25 0
10 58 25 0
10 1 25 0
10 1 58 0
75 59 105 0
81 59 105 0
81 75 105 0
81 75 59 0
78 61 84 0
49 61 84 0
49 78 84 0
49 78 61 0
23 40 74 0
6 40 74 0
6 23 74 0
6 23 40 0
4 64 72 0
87 64 72 0
87 4 72 0
87 4 64 0
83 44 96 0
17 44 96 0
17 83 96 0
17 83 44 0
45 39 36 0
3 39 36 0
3 45 36 0
3 45 39 0
5 11 79 0
85 11 79 0
85 5 79 0
85 5 11 0
19 37 88 0
89 37 88 0
89 19 88 0
89 19 37 0
9 73 46 0
52 73 46 0
52 9 46 0
52 9 73 0
53 86 14 0
102 86 14 0
102 53 14 0
102 53 86 0
27 63 54 0
93 63 54 0
93 27 54 0
93 27 63 0
103 38 32 0
94 38 32 0
94 103 32 0
94 103 38 0
60 65 8 0
55 65 8 0
55 60 8 0
55 60 65 0
68 76 70 0
68 76 77 0
68 76 30 0
68 70 77 0
68 70 30 0
68 77 30 0
76 70 77 0
76 70 30 0
76 77 30 0
70 77 30 0
